TYPE : Vertex Cover
DIMENSION: 22
EDGE_DATA_SECTION:
0 8
0 16
1 2
1 9
1 12
2 8
2 18
2 21
3 6
3 16
4 5
4 7
4 8
6 10
6 21
7 18
8 9
8 15
9 13
10 17
12 17
12 20
13 15
13 19
15 19
15 20
16 19
18 19
18 21
19 21
-1
VERTEX_DEGREE:
2.0 3.0 4.0 2.0 3.0 1.0 3.0 2.0 5.0 3.0 2.0 0.0 3.0 3.0 0.0 4.0 3.0 2.0 4.0 5.0 2.0 4.0
VERTEX_COVER:
2 4 6 8 9 12 15 16 17 18 19
EOF
